proyfinal/src/viki/013/andrea/andrea-localstore/experimentInOfficeAgust.take6/worker_1/feee7491-6af2-472f-819b-60c63d843a40.als.cnf.out
Reading from standard input... Use '--help' for help.
============================[ Problem Statistics ]=============================
|                                                                             |
|  Number of variables:         87638                                         |
|  Number of clauses:          161767                                         |
|  Parse time:                   0.03 s                                       |
|                                                                             |
============================[ Search Statistics ]==============================
| Conflicts |          ORIGINAL         |          LEARNT          | Progress |
|           |    Vars  Clauses Literals |    Limit  Clauses Lit/Cl |          |
===============================================================================
|       100 |   62730   106455   265984 |    39033      100     10 | 28.421 % |
|       250 |   62730   106455   265984 |    42936      250     49 | 28.421 % |
|       475 |   62730   106455   265984 |    47230      475     59 | 28.421 % |
|       812 |   62730   106455   265984 |    51953      812     60 | 28.421 % |
|      1318 |   62730   106455   265984 |    57148     1318     51 | 28.421 % |
|      2077 |   62723   106371   265782 |    62863     2074     68 | 28.429 % |
|      3216 |   62723   106371   265782 |    69150     3213     68 | 28.429 % |
|      4924 |   62662   106086   265137 |    76065     4130     72 | 28.499 % |
|      7486 |   62662   106086   265137 |    83671     6692     82 | 28.499 % |
|     11330 |   62643   106010   264961 |    92038    10535     94 | 28.521 % |
|     17096 |   52722    76277   191548 |   101242    16143     89 | 39.841 % |
===============================================================================
restarts              : 63
conflicts             : 17887          (7362 /sec)
decisions             : 56861          (0.00 % random) (23404 /sec)
propagations          : 23227151       (9560104 /sec)
conflict literals     : 1550952        (53.84 % deleted)
Memory used           : 43.07 MB
CPU time              : 2.42959 s

INDETERMINATE
